language Essence 1.3

letting p be
        partition({1, 2, 8, 11, 13, 15, 19, 20, 26, 32, 34, 36, 37, 41, 42, 43, 46, 57},
                  {3, 5, 9, 10, 12, 21, 22, 24, 27, 28, 29, 31, 35, 38, 40, 44, 47, 51, 54, 55},
                  {4, 6, 7, 14, 16, 17, 18, 23, 25, 30, 33, 39, 45, 48, 49, 50, 52, 53, 56})
